TCS_Benchmarks/redos_fix/snort3_output_distinct_1357_1356_0_0.txt
([^\n]*)(.{4})
([^\n]*)(\.[cC][mM][dD][%"])(.{4})